
Gurobi 9.5.1 (win64, gurobi_cl) logging started Wed Jan 18 11:49:24 2023

Set parameter Username
Set parameter TimeLimit to value 3600
Set parameter LogFile to value "gurobi.log"
Academic license - for non-commercial use only - expires 2023-08-27
Using license file C:\Users\luhsa\gurobi.lic

Gurobi Optimizer version 9.5.1 build v9.5.1rc2 (win64)
Copyright (c) 2022, Gurobi Optimization, LLC

Read LP format model from file MPC-ARCP-pulp.lp
Reading time = 0.01 seconds
OBJ: 547 rows, 266 columns, 2130 nonzeros
Thread count: 6 physical cores, 12 logical processors, using up to 12 threads
Optimize a model with 547 rows, 266 columns and 2130 nonzeros
Model fingerprint: 0xbd1ba640
Variable types: 106 continuous, 160 integer (118 binary)
Coefficient statistics:
  Matrix range     [4e-01, 2e+02]
  Objective range  [8e+00, 8e+00]
  Bounds range     [1e+00, 1e+00]
  RHS range        [1e+00, 2e+02]
Found heuristic solution: objective -0.0000000
Presolve removed 176 rows and 86 columns
Presolve time: 0.01s
Presolved: 371 rows, 180 columns, 2076 nonzeros
Variable types: 57 continuous, 123 integer (101 binary)

Root relaxation: objective 4.203404e+01, 129 iterations, 0.00 seconds (0.00 work units)

    Nodes    |    Current Node    |     Objective Bounds      |     Work
 Expl Unexpl |  Obj  Depth IntInf | Incumbent    BestBd   Gap | It/Node Time

     0     0   42.03404    0   19   -0.00000   42.03404      -     -    0s
H    0     0                      30.0000000   42.03404  40.1%     -    0s
     0     0   42.03404    0   19   30.00000   42.03404  40.1%     -    0s

Explored 1 nodes (158 simplex iterations) in 0.02 seconds (0.01 work units)
Thread count was 12 (of 12 available processors)

Solution count 2: 30 -0 

Optimal solution found (tolerance 1.00e-04)
Best objective 3.000000000000e+01, best bound 3.000000000000e+01, gap 0.0000%

Wrote result file 'MPC-ARCP-pulp.sol'

